(declare-const in6 Int)
(declare-const in5 Int)
(declare-const in7 Int)
(declare-const in0 Int)
(declare-const in2 Int)
(declare-const in1 Int)
(declare-const in4 Int)
(declare-const in3 Int)

(assert (and (and (and (and (and (and (and (and (and (and (and (and (and (and (and (and (and (and (and (and (and (and (and (and (and (and (and (and (and (and (and (and (and (and (and (and (and (and (and (and (and (and (and (and (and (and (and (and (and (and (and (and (and (and (and (and (and (and (and (and (and (and (and (and (and (and (and (and (and (and (and (and (and (and (and (and (and (and (and (and (and (and (and (and (and (and (and (and (and (and (and (and (and (and (and (and (and (and (and (and (and (and (and (and (and (and (and (and (and (and (and (and (and (and (and (and (and (and (and (and (and (and (and (and (and (and (and (and (and (and (and (and (and (and (and (and (and (and (and (and (and (and (and (and (and (and (and (and (and (and (and (and (and (and (and (and (and (and (and (and (and (and (and (and (and (and (and (and (and (and (and (and (and (and (and (and (and (and (and (and (and (and (and (and (and (and (and (and (and (and (and (and (and (and (and (and (and (and (and  ( <  0 ( /  ( +  in7 ( +  in6 ( +  in5 ( +  in4 ( +  in3 ( +  in2 ( +  in1 in0))))))) 8))  ( <  1 ( /  ( +  in7 ( +  in6 ( +  in5 ( +  in4 ( +  in3 ( +  in2 ( +  in1 in0))))))) 8)))  ( <  2 ( /  ( +  in7 ( +  in6 ( +  in5 ( +  in4 ( +  in3 ( +  in2 ( +  in1 in0))))))) 8)))  ( <  3 ( /  ( +  in7 ( +  in6 ( +  in5 ( +  in4 ( +  in3 ( +  in2 ( +  in1 in0))))))) 8)))  ( <  4 ( /  ( +  in7 ( +  in6 ( +  in5 ( +  in4 ( +  in3 ( +  in2 ( +  in1 in0))))))) 8)))  ( <  5 ( /  ( +  in7 ( +  in6 ( +  in5 ( +  in4 ( +  in3 ( +  in2 ( +  in1 in0))))))) 8)))  ( <  6 ( /  ( +  in7 ( +  in6 ( +  in5 ( +  in4 ( +  in3 ( +  in2 ( +  in1 in0))))))) 8)))  ( <  7 ( /  ( +  in7 ( +  in6 ( +  in5 ( +  in4 ( +  in3 ( +  in2 ( +  in1 in0))))))) 8)))  ( <  8 ( /  ( +  in7 ( +  in6 ( +  in5 ( +  in4 ( +  in3 ( +  in2 ( +  in1 in0))))))) 8)))  ( <  9 ( /  ( +  in7 ( +  in6 ( +  in5 ( +  in4 ( +  in3 ( +  in2 ( +  in1 in0))))))) 8)))  ( <  10 ( /  ( +  in7 ( +  in6 ( +  in5 ( +  in4 ( +  in3 ( +  in2 ( +  in1 in0))))))) 8)))  ( <  11 ( /  ( +  in7 ( +  in6 ( +  in5 ( +  in4 ( +  in3 ( +  in2 ( +  in1 in0))))))) 8)))  ( <  12 ( /  ( +  in7 ( +  in6 ( +  in5 ( +  in4 ( +  in3 ( +  in2 ( +  in1 in0))))))) 8)))  ( <  13 ( /  ( +  in7 ( +  in6 ( +  in5 ( +  in4 ( +  in3 ( +  in2 ( +  in1 in0))))))) 8)))  ( <  14 ( /  ( +  in7 ( +  in6 ( +  in5 ( +  in4 ( +  in3 ( +  in2 ( +  in1 in0))))))) 8)))  ( <  15 ( /  ( +  in7 ( +  in6 ( +  in5 ( +  in4 ( +  in3 ( +  in2 ( +  in1 in0))))))) 8)))  ( <  16 ( /  ( +  in7 ( +  in6 ( +  in5 ( +  in4 ( +  in3 ( +  in2 ( +  in1 in0))))))) 8)))  ( <  17 ( /  ( +  in7 ( +  in6 ( +  in5 ( +  in4 ( +  in3 ( +  in2 ( +  in1 in0))))))) 8)))  ( <  18 ( /  ( +  in7 ( +  in6 ( +  in5 ( +  in4 ( +  in3 ( +  in2 ( +  in1 in0))))))) 8)))  ( <  19 ( /  ( +  in7 ( +  in6 ( +  in5 ( +  in4 ( +  in3 ( +  in2 ( +  in1 in0))))))) 8)))  ( <  20 ( /  ( +  in7 ( +  in6 ( +  in5 ( +  in4 ( +  in3 ( +  in2 ( +  in1 in0))))))) 8)))  ( <  21 ( /  ( +  in7 ( +  in6 ( +  in5 ( +  in4 ( +  in3 ( +  in2 ( +  in1 in0))))))) 8)))  ( <  22 ( /  ( +  in7 ( +  in6 ( +  in5 ( +  in4 ( +  in3 ( +  in2 ( +  in1 in0))))))) 8)))  ( <  23 ( /  ( +  in7 ( +  in6 ( +  in5 ( +  in4 ( +  in3 ( +  in2 ( +  in1 in0))))))) 8)))  ( <  24 ( /  ( +  in7 ( +  in6 ( +  in5 ( +  in4 ( +  in3 ( +  in2 ( +  in1 in0))))))) 8)))  ( <  25 ( /  ( +  in7 ( +  in6 ( +  in5 ( +  in4 ( +  in3 ( +  in2 ( +  in1 in0))))))) 8)))  ( <  26 ( /  ( +  in7 ( +  in6 ( +  in5 ( +  in4 ( +  in3 ( +  in2 ( +  in1 in0))))))) 8)))  ( <  27 ( /  ( +  in7 ( +  in6 ( +  in5 ( +  in4 ( +  in3 ( +  in2 ( +  in1 in0))))))) 8)))  ( <  28 ( /  ( +  in7 ( +  in6 ( +  in5 ( +  in4 ( +  in3 ( +  in2 ( +  in1 in0))))))) 8)))  ( <  29 ( /  ( +  in7 ( +  in6 ( +  in5 ( +  in4 ( +  in3 ( +  in2 ( +  in1 in0))))))) 8)))  ( <  30 ( /  ( +  in7 ( +  in6 ( +  in5 ( +  in4 ( +  in3 ( +  in2 ( +  in1 in0))))))) 8)))  ( <  31 ( /  ( +  in7 ( +  in6 ( +  in5 ( +  in4 ( +  in3 ( +  in2 ( +  in1 in0))))))) 8)))  ( <  32 ( /  ( +  in7 ( +  in6 ( +  in5 ( +  in4 ( +  in3 ( +  in2 ( +  in1 in0))))))) 8)))  ( <  33 ( /  ( +  in7 ( +  in6 ( +  in5 ( +  in4 ( +  in3 ( +  in2 ( +  in1 in0))))))) 8)))  ( <  34 ( /  ( +  in7 ( +  in6 ( +  in5 ( +  in4 ( +  in3 ( +  in2 ( +  in1 in0))))))) 8)))  ( <  35 ( /  ( +  in7 ( +  in6 ( +  in5 ( +  in4 ( +  in3 ( +  in2 ( +  in1 in0))))))) 8)))  ( <  36 ( /  ( +  in7 ( +  in6 ( +  in5 ( +  in4 ( +  in3 ( +  in2 ( +  in1 in0))))))) 8)))  ( <  37 ( /  ( +  in7 ( +  in6 ( +  in5 ( +  in4 ( +  in3 ( +  in2 ( +  in1 in0))))))) 8)))  ( <  38 ( /  ( +  in7 ( +  in6 ( +  in5 ( +  in4 ( +  in3 ( +  in2 ( +  in1 in0))))))) 8)))  ( <  39 ( /  ( +  in7 ( +  in6 ( +  in5 ( +  in4 ( +  in3 ( +  in2 ( +  in1 in0))))))) 8)))  ( <  40 ( /  ( +  in7 ( +  in6 ( +  in5 ( +  in4 ( +  in3 ( +  in2 ( +  in1 in0))))))) 8)))  ( <  41 ( /  ( +  in7 ( +  in6 ( +  in5 ( +  in4 ( +  in3 ( +  in2 ( +  in1 in0))))))) 8)))  ( <  42 ( /  ( +  in7 ( +  in6 ( +  in5 ( +  in4 ( +  in3 ( +  in2 ( +  in1 in0))))))) 8)))  ( <  43 ( /  ( +  in7 ( +  in6 ( +  in5 ( +  in4 ( +  in3 ( +  in2 ( +  in1 in0))))))) 8)))  ( <  44 ( /  ( +  in7 ( +  in6 ( +  in5 ( +  in4 ( +  in3 ( +  in2 ( +  in1 in0))))))) 8)))  ( <  45 ( /  ( +  in7 ( +  in6 ( +  in5 ( +  in4 ( +  in3 ( +  in2 ( +  in1 in0))))))) 8)))  ( <  46 ( /  ( +  in7 ( +  in6 ( +  in5 ( +  in4 ( +  in3 ( +  in2 ( +  in1 in0))))))) 8)))  ( <  47 ( /  ( +  in7 ( +  in6 ( +  in5 ( +  in4 ( +  in3 ( +  in2 ( +  in1 in0))))))) 8)))  ( <  48 ( /  ( +  in7 ( +  in6 ( +  in5 ( +  in4 ( +  in3 ( +  in2 ( +  in1 in0))))))) 8)))  ( <  49 ( /  ( +  in7 ( +  in6 ( +  in5 ( +  in4 ( +  in3 ( +  in2 ( +  in1 in0))))))) 8)))  ( <  50 ( /  ( +  in7 ( +  in6 ( +  in5 ( +  in4 ( +  in3 ( +  in2 ( +  in1 in0))))))) 8)))  ( <  51 ( /  ( +  in7 ( +  in6 ( +  in5 ( +  in4 ( +  in3 ( +  in2 ( +  in1 in0))))))) 8)))  ( <  52 ( /  ( +  in7 ( +  in6 ( +  in5 ( +  in4 ( +  in3 ( +  in2 ( +  in1 in0))))))) 8)))  ( <  53 ( /  ( +  in7 ( +  in6 ( +  in5 ( +  in4 ( +  in3 ( +  in2 ( +  in1 in0))))))) 8)))  ( <  54 ( /  ( +  in7 ( +  in6 ( +  in5 ( +  in4 ( +  in3 ( +  in2 ( +  in1 in0))))))) 8)))  ( <  55 ( /  ( +  in7 ( +  in6 ( +  in5 ( +  in4 ( +  in3 ( +  in2 ( +  in1 in0))))))) 8)))  ( <  56 ( /  ( +  in7 ( +  in6 ( +  in5 ( +  in4 ( +  in3 ( +  in2 ( +  in1 in0))))))) 8)))  ( <  57 ( /  ( +  in7 ( +  in6 ( +  in5 ( +  in4 ( +  in3 ( +  in2 ( +  in1 in0))))))) 8)))  ( <  58 ( /  ( +  in7 ( +  in6 ( +  in5 ( +  in4 ( +  in3 ( +  in2 ( +  in1 in0))))))) 8)))  ( <  59 ( /  ( +  in7 ( +  in6 ( +  in5 ( +  in4 ( +  in3 ( +  in2 ( +  in1 in0))))))) 8)))  ( <  60 ( /  ( +  in7 ( +  in6 ( +  in5 ( +  in4 ( +  in3 ( +  in2 ( +  in1 in0))))))) 8)))  ( <  61 ( /  ( +  in7 ( +  in6 ( +  in5 ( +  in4 ( +  in3 ( +  in2 ( +  in1 in0))))))) 8)))  ( <  62 ( /  ( +  in7 ( +  in6 ( +  in5 ( +  in4 ( +  in3 ( +  in2 ( +  in1 in0))))))) 8)))  ( <  63 ( /  ( +  in7 ( +  in6 ( +  in5 ( +  in4 ( +  in3 ( +  in2 ( +  in1 in0))))))) 8)))  ( <  64 ( /  ( +  in7 ( +  in6 ( +  in5 ( +  in4 ( +  in3 ( +  in2 ( +  in1 in0))))))) 8)))  ( <  65 ( /  ( +  in7 ( +  in6 ( +  in5 ( +  in4 ( +  in3 ( +  in2 ( +  in1 in0))))))) 8)))  ( <  66 ( /  ( +  in7 ( +  in6 ( +  in5 ( +  in4 ( +  in3 ( +  in2 ( +  in1 in0))))))) 8)))  ( <  67 ( /  ( +  in7 ( +  in6 ( +  in5 ( +  in4 ( +  in3 ( +  in2 ( +  in1 in0))))))) 8)))  ( <  68 ( /  ( +  in7 ( +  in6 ( +  in5 ( +  in4 ( +  in3 ( +  in2 ( +  in1 in0))))))) 8)))  ( <  69 ( /  ( +  in7 ( +  in6 ( +  in5 ( +  in4 ( +  in3 ( +  in2 ( +  in1 in0))))))) 8)))  ( <  70 ( /  ( +  in7 ( +  in6 ( +  in5 ( +  in4 ( +  in3 ( +  in2 ( +  in1 in0))))))) 8)))  ( <  71 ( /  ( +  in7 ( +  in6 ( +  in5 ( +  in4 ( +  in3 ( +  in2 ( +  in1 in0))))))) 8)))  ( <  72 ( /  ( +  in7 ( +  in6 ( +  in5 ( +  in4 ( +  in3 ( +  in2 ( +  in1 in0))))))) 8)))  ( <  73 ( /  ( +  in7 ( +  in6 ( +  in5 ( +  in4 ( +  in3 ( +  in2 ( +  in1 in0))))))) 8)))  ( <  74 ( /  ( +  in7 ( +  in6 ( +  in5 ( +  in4 ( +  in3 ( +  in2 ( +  in1 in0))))))) 8)))  ( <  75 ( /  ( +  in7 ( +  in6 ( +  in5 ( +  in4 ( +  in3 ( +  in2 ( +  in1 in0))))))) 8)))  ( <  76 ( /  ( +  in7 ( +  in6 ( +  in5 ( +  in4 ( +  in3 ( +  in2 ( +  in1 in0))))))) 8)))  ( <  77 ( /  ( +  in7 ( +  in6 ( +  in5 ( +  in4 ( +  in3 ( +  in2 ( +  in1 in0))))))) 8)))  ( <  78 ( /  ( +  in7 ( +  in6 ( +  in5 ( +  in4 ( +  in3 ( +  in2 ( +  in1 in0))))))) 8)))  ( <  79 ( /  ( +  in7 ( +  in6 ( +  in5 ( +  in4 ( +  in3 ( +  in2 ( +  in1 in0))))))) 8)))  ( <  80 ( /  ( +  in7 ( +  in6 ( +  in5 ( +  in4 ( +  in3 ( +  in2 ( +  in1 in0))))))) 8)))  ( <  81 ( /  ( +  in7 ( +  in6 ( +  in5 ( +  in4 ( +  in3 ( +  in2 ( +  in1 in0))))))) 8)))  ( <  82 ( /  ( +  in7 ( +  in6 ( +  in5 ( +  in4 ( +  in3 ( +  in2 ( +  in1 in0))))))) 8)))  ( <  83 ( /  ( +  in7 ( +  in6 ( +  in5 ( +  in4 ( +  in3 ( +  in2 ( +  in1 in0))))))) 8)))  ( <  84 ( /  ( +  in7 ( +  in6 ( +  in5 ( +  in4 ( +  in3 ( +  in2 ( +  in1 in0))))))) 8)))  ( <  85 ( /  ( +  in7 ( +  in6 ( +  in5 ( +  in4 ( +  in3 ( +  in2 ( +  in1 in0))))))) 8)))  ( <  86 ( /  ( +  in7 ( +  in6 ( +  in5 ( +  in4 ( +  in3 ( +  in2 ( +  in1 in0))))))) 8)))  ( <  87 ( /  ( +  in7 ( +  in6 ( +  in5 ( +  in4 ( +  in3 ( +  in2 ( +  in1 in0))))))) 8)))  ( <  88 ( /  ( +  in7 ( +  in6 ( +  in5 ( +  in4 ( +  in3 ( +  in2 ( +  in1 in0))))))) 8)))  ( <  89 ( /  ( +  in7 ( +  in6 ( +  in5 ( +  in4 ( +  in3 ( +  in2 ( +  in1 in0))))))) 8)))  ( <  90 ( /  ( +  in7 ( +  in6 ( +  in5 ( +  in4 ( +  in3 ( +  in2 ( +  in1 in0))))))) 8)))  ( <  91 ( /  ( +  in7 ( +  in6 ( +  in5 ( +  in4 ( +  in3 ( +  in2 ( +  in1 in0))))))) 8)))  ( <  92 ( /  ( +  in7 ( +  in6 ( +  in5 ( +  in4 ( +  in3 ( +  in2 ( +  in1 in0))))))) 8)))  ( <  93 ( /  ( +  in7 ( +  in6 ( +  in5 ( +  in4 ( +  in3 ( +  in2 ( +  in1 in0))))))) 8)))  ( <  94 ( /  ( +  in7 ( +  in6 ( +  in5 ( +  in4 ( +  in3 ( +  in2 ( +  in1 in0))))))) 8)))  ( <  95 ( /  ( +  in7 ( +  in6 ( +  in5 ( +  in4 ( +  in3 ( +  in2 ( +  in1 in0))))))) 8)))  ( <  96 ( /  ( +  in7 ( +  in6 ( +  in5 ( +  in4 ( +  in3 ( +  in2 ( +  in1 in0))))))) 8)))  ( <  97 ( /  ( +  in7 ( +  in6 ( +  in5 ( +  in4 ( +  in3 ( +  in2 ( +  in1 in0))))))) 8)))  ( <  98 ( /  ( +  in7 ( +  in6 ( +  in5 ( +  in4 ( +  in3 ( +  in2 ( +  in1 in0))))))) 8)))  ( <  99 ( /  ( +  in7 ( +  in6 ( +  in5 ( +  in4 ( +  in3 ( +  in2 ( +  in1 in0))))))) 8)))  ( <  100 ( /  ( +  in7 ( +  in6 ( +  in5 ( +  in4 ( +  in3 ( +  in2 ( +  in1 in0))))))) 8)))  ( <  101 ( /  ( +  in7 ( +  in6 ( +  in5 ( +  in4 ( +  in3 ( +  in2 ( +  in1 in0))))))) 8)))  ( <  102 ( /  ( +  in7 ( +  in6 ( +  in5 ( +  in4 ( +  in3 ( +  in2 ( +  in1 in0))))))) 8)))  ( <  103 ( /  ( +  in7 ( +  in6 ( +  in5 ( +  in4 ( +  in3 ( +  in2 ( +  in1 in0))))))) 8)))  ( <  104 ( /  ( +  in7 ( +  in6 ( +  in5 ( +  in4 ( +  in3 ( +  in2 ( +  in1 in0))))))) 8)))  ( <  105 ( /  ( +  in7 ( +  in6 ( +  in5 ( +  in4 ( +  in3 ( +  in2 ( +  in1 in0))))))) 8)))  ( <  106 ( /  ( +  in7 ( +  in6 ( +  in5 ( +  in4 ( +  in3 ( +  in2 ( +  in1 in0))))))) 8)))  ( <  107 ( /  ( +  in7 ( +  in6 ( +  in5 ( +  in4 ( +  in3 ( +  in2 ( +  in1 in0))))))) 8)))  ( <  108 ( /  ( +  in7 ( +  in6 ( +  in5 ( +  in4 ( +  in3 ( +  in2 ( +  in1 in0))))))) 8)))  ( <  109 ( /  ( +  in7 ( +  in6 ( +  in5 ( +  in4 ( +  in3 ( +  in2 ( +  in1 in0))))))) 8)))  ( <  110 ( /  ( +  in7 ( +  in6 ( +  in5 ( +  in4 ( +  in3 ( +  in2 ( +  in1 in0))))))) 8)))  ( <  111 ( /  ( +  in7 ( +  in6 ( +  in5 ( +  in4 ( +  in3 ( +  in2 ( +  in1 in0))))))) 8)))  ( <  112 ( /  ( +  in7 ( +  in6 ( +  in5 ( +  in4 ( +  in3 ( +  in2 ( +  in1 in0))))))) 8)))  ( <  113 ( /  ( +  in7 ( +  in6 ( +  in5 ( +  in4 ( +  in3 ( +  in2 ( +  in1 in0))))))) 8)))  ( <  114 ( /  ( +  in7 ( +  in6 ( +  in5 ( +  in4 ( +  in3 ( +  in2 ( +  in1 in0))))))) 8)))  ( <  115 ( /  ( +  in7 ( +  in6 ( +  in5 ( +  in4 ( +  in3 ( +  in2 ( +  in1 in0))))))) 8)))  ( <  116 ( /  ( +  in7 ( +  in6 ( +  in5 ( +  in4 ( +  in3 ( +  in2 ( +  in1 in0))))))) 8)))  ( <  117 ( /  ( +  in7 ( +  in6 ( +  in5 ( +  in4 ( +  in3 ( +  in2 ( +  in1 in0))))))) 8)))  ( <  118 ( /  ( +  in7 ( +  in6 ( +  in5 ( +  in4 ( +  in3 ( +  in2 ( +  in1 in0))))))) 8)))  ( <  119 ( /  ( +  in7 ( +  in6 ( +  in5 ( +  in4 ( +  in3 ( +  in2 ( +  in1 in0))))))) 8)))  ( <  120 ( /  ( +  in7 ( +  in6 ( +  in5 ( +  in4 ( +  in3 ( +  in2 ( +  in1 in0))))))) 8)))  ( <  121 ( /  ( +  in7 ( +  in6 ( +  in5 ( +  in4 ( +  in3 ( +  in2 ( +  in1 in0))))))) 8)))  ( <  122 ( /  ( +  in7 ( +  in6 ( +  in5 ( +  in4 ( +  in3 ( +  in2 ( +  in1 in0))))))) 8)))  ( <  123 ( /  ( +  in7 ( +  in6 ( +  in5 ( +  in4 ( +  in3 ( +  in2 ( +  in1 in0))))))) 8)))  ( <  124 ( /  ( +  in7 ( +  in6 ( +  in5 ( +  in4 ( +  in3 ( +  in2 ( +  in1 in0))))))) 8)))  ( <  125 ( /  ( +  in7 ( +  in6 ( +  in5 ( +  in4 ( +  in3 ( +  in2 ( +  in1 in0))))))) 8)))  ( <  126 ( /  ( +  in7 ( +  in6 ( +  in5 ( +  in4 ( +  in3 ( +  in2 ( +  in1 in0))))))) 8)))  ( <  127 ( /  ( +  in7 ( +  in6 ( +  in5 ( +  in4 ( +  in3 ( +  in2 ( +  in1 in0))))))) 8)))  ( <  128 ( /  ( +  in7 ( +  in6 ( +  in5 ( +  in4 ( +  in3 ( +  in2 ( +  in1 in0))))))) 8)))  ( <  129 ( /  ( +  in7 ( +  in6 ( +  in5 ( +  in4 ( +  in3 ( +  in2 ( +  in1 in0))))))) 8)))  ( <  130 ( /  ( +  in7 ( +  in6 ( +  in5 ( +  in4 ( +  in3 ( +  in2 ( +  in1 in0))))))) 8)))  ( <  131 ( /  ( +  in7 ( +  in6 ( +  in5 ( +  in4 ( +  in3 ( +  in2 ( +  in1 in0))))))) 8)))  ( <  132 ( /  ( +  in7 ( +  in6 ( +  in5 ( +  in4 ( +  in3 ( +  in2 ( +  in1 in0))))))) 8)))  ( <  133 ( /  ( +  in7 ( +  in6 ( +  in5 ( +  in4 ( +  in3 ( +  in2 ( +  in1 in0))))))) 8)))  ( <  134 ( /  ( +  in7 ( +  in6 ( +  in5 ( +  in4 ( +  in3 ( +  in2 ( +  in1 in0))))))) 8)))  ( <  135 ( /  ( +  in7 ( +  in6 ( +  in5 ( +  in4 ( +  in3 ( +  in2 ( +  in1 in0))))))) 8)))  ( <  136 ( /  ( +  in7 ( +  in6 ( +  in5 ( +  in4 ( +  in3 ( +  in2 ( +  in1 in0))))))) 8)))  ( <  137 ( /  ( +  in7 ( +  in6 ( +  in5 ( +  in4 ( +  in3 ( +  in2 ( +  in1 in0))))))) 8)))  ( <  138 ( /  ( +  in7 ( +  in6 ( +  in5 ( +  in4 ( +  in3 ( +  in2 ( +  in1 in0))))))) 8)))  ( <  139 ( /  ( +  in7 ( +  in6 ( +  in5 ( +  in4 ( +  in3 ( +  in2 ( +  in1 in0))))))) 8)))  ( <  140 ( /  ( +  in7 ( +  in6 ( +  in5 ( +  in4 ( +  in3 ( +  in2 ( +  in1 in0))))))) 8)))  ( <  141 ( /  ( +  in7 ( +  in6 ( +  in5 ( +  in4 ( +  in3 ( +  in2 ( +  in1 in0))))))) 8)))  ( <  142 ( /  ( +  in7 ( +  in6 ( +  in5 ( +  in4 ( +  in3 ( +  in2 ( +  in1 in0))))))) 8)))  ( <  143 ( /  ( +  in7 ( +  in6 ( +  in5 ( +  in4 ( +  in3 ( +  in2 ( +  in1 in0))))))) 8)))  ( <  144 ( /  ( +  in7 ( +  in6 ( +  in5 ( +  in4 ( +  in3 ( +  in2 ( +  in1 in0))))))) 8)))  ( <  145 ( /  ( +  in7 ( +  in6 ( +  in5 ( +  in4 ( +  in3 ( +  in2 ( +  in1 in0))))))) 8)))  ( <  146 ( /  ( +  in7 ( +  in6 ( +  in5 ( +  in4 ( +  in3 ( +  in2 ( +  in1 in0))))))) 8)))  ( <  147 ( /  ( +  in7 ( +  in6 ( +  in5 ( +  in4 ( +  in3 ( +  in2 ( +  in1 in0))))))) 8)))  ( <  148 ( /  ( +  in7 ( +  in6 ( +  in5 ( +  in4 ( +  in3 ( +  in2 ( +  in1 in0))))))) 8)))  ( <  149 ( /  ( +  in7 ( +  in6 ( +  in5 ( +  in4 ( +  in3 ( +  in2 ( +  in1 in0))))))) 8)))  ( <  150 ( /  ( +  in7 ( +  in6 ( +  in5 ( +  in4 ( +  in3 ( +  in2 ( +  in1 in0))))))) 8)))  ( <  151 ( /  ( +  in7 ( +  in6 ( +  in5 ( +  in4 ( +  in3 ( +  in2 ( +  in1 in0))))))) 8)))  ( <  152 ( /  ( +  in7 ( +  in6 ( +  in5 ( +  in4 ( +  in3 ( +  in2 ( +  in1 in0))))))) 8)))  ( <  153 ( /  ( +  in7 ( +  in6 ( +  in5 ( +  in4 ( +  in3 ( +  in2 ( +  in1 in0))))))) 8)))  ( <  154 ( /  ( +  in7 ( +  in6 ( +  in5 ( +  in4 ( +  in3 ( +  in2 ( +  in1 in0))))))) 8)))  ( <  155 ( /  ( +  in7 ( +  in6 ( +  in5 ( +  in4 ( +  in3 ( +  in2 ( +  in1 in0))))))) 8)))  ( <  156 ( /  ( +  in7 ( +  in6 ( +  in5 ( +  in4 ( +  in3 ( +  in2 ( +  in1 in0))))))) 8)))  ( <  157 ( /  ( +  in7 ( +  in6 ( +  in5 ( +  in4 ( +  in3 ( +  in2 ( +  in1 in0))))))) 8)))  ( <  158 ( /  ( +  in7 ( +  in6 ( +  in5 ( +  in4 ( +  in3 ( +  in2 ( +  in1 in0))))))) 8)))  ( <  159 ( /  ( +  in7 ( +  in6 ( +  in5 ( +  in4 ( +  in3 ( +  in2 ( +  in1 in0))))))) 8)))  ( <  160 ( /  ( +  in7 ( +  in6 ( +  in5 ( +  in4 ( +  in3 ( +  in2 ( +  in1 in0))))))) 8)))  ( <  161 ( /  ( +  in7 ( +  in6 ( +  in5 ( +  in4 ( +  in3 ( +  in2 ( +  in1 in0))))))) 8)))  ( <  162 ( /  ( +  in7 ( +  in6 ( +  in5 ( +  in4 ( +  in3 ( +  in2 ( +  in1 in0))))))) 8)))  ( <  163 ( /  ( +  in7 ( +  in6 ( +  in5 ( +  in4 ( +  in3 ( +  in2 ( +  in1 in0))))))) 8)))  ( <  164 ( /  ( +  in7 ( +  in6 ( +  in5 ( +  in4 ( +  in3 ( +  in2 ( +  in1 in0))))))) 8)))  ( <  165 ( /  ( +  in7 ( +  in6 ( +  in5 ( +  in4 ( +  in3 ( +  in2 ( +  in1 in0))))))) 8)))  ( <  166 ( /  ( +  in7 ( +  in6 ( +  in5 ( +  in4 ( +  in3 ( +  in2 ( +  in1 in0))))))) 8)))  ( <  167 ( /  ( +  in7 ( +  in6 ( +  in5 ( +  in4 ( +  in3 ( +  in2 ( +  in1 in0))))))) 8)))  ( <  168 ( /  ( +  in7 ( +  in6 ( +  in5 ( +  in4 ( +  in3 ( +  in2 ( +  in1 in0))))))) 8)))  ( <  169 ( /  ( +  in7 ( +  in6 ( +  in5 ( +  in4 ( +  in3 ( +  in2 ( +  in1 in0))))))) 8)))  ( <  170 ( /  ( +  in7 ( +  in6 ( +  in5 ( +  in4 ( +  in3 ( +  in2 ( +  in1 in0))))))) 8)))  ( <  171 ( /  ( +  in7 ( +  in6 ( +  in5 ( +  in4 ( +  in3 ( +  in2 ( +  in1 in0))))))) 8)))  ( <  172 ( /  ( +  in7 ( +  in6 ( +  in5 ( +  in4 ( +  in3 ( +  in2 ( +  in1 in0))))))) 8)))  ( <  173 ( /  ( +  in7 ( +  in6 ( +  in5 ( +  in4 ( +  in3 ( +  in2 ( +  in1 in0))))))) 8)))  ( <  174 ( /  ( +  in7 ( +  in6 ( +  in5 ( +  in4 ( +  in3 ( +  in2 ( +  in1 in0))))))) 8)))  ( <  175 ( /  ( +  in7 ( +  in6 ( +  in5 ( +  in4 ( +  in3 ( +  in2 ( +  in1 in0))))))) 8)))  ( <  176 ( /  ( +  in7 ( +  in6 ( +  in5 ( +  in4 ( +  in3 ( +  in2 ( +  in1 in0))))))) 8)))  ( <  177 ( /  ( +  in7 ( +  in6 ( +  in5 ( +  in4 ( +  in3 ( +  in2 ( +  in1 in0))))))) 8)))  ( <  178 ( /  ( +  in7 ( +  in6 ( +  in5 ( +  in4 ( +  in3 ( +  in2 ( +  in1 in0))))))) 8)))  ( <  179 ( /  ( +  in7 ( +  in6 ( +  in5 ( +  in4 ( +  in3 ( +  in2 ( +  in1 in0))))))) 8)))  ( <  180 ( /  ( +  in7 ( +  in6 ( +  in5 ( +  in4 ( +  in3 ( +  in2 ( +  in1 in0))))))) 8)))  ( <  181 ( /  ( +  in7 ( +  in6 ( +  in5 ( +  in4 ( +  in3 ( +  in2 ( +  in1 in0))))))) 8)))  ( <  182 ( /  ( +  in7 ( +  in6 ( +  in5 ( +  in4 ( +  in3 ( +  in2 ( +  in1 in0))))))) 8)))  ( <  183 ( /  ( +  in7 ( +  in6 ( +  in5 ( +  in4 ( +  in3 ( +  in2 ( +  in1 in0))))))) 8)))  ( <  184 ( /  ( +  in7 ( +  in6 ( +  in5 ( +  in4 ( +  in3 ( +  in2 ( +  in1 in0))))))) 8)))  ( <  185 ( /  ( +  in7 ( +  in6 ( +  in5 ( +  in4 ( +  in3 ( +  in2 ( +  in1 in0))))))) 8)))  ( <  186 ( /  ( +  in7 ( +  in6 ( +  in5 ( +  in4 ( +  in3 ( +  in2 ( +  in1 in0))))))) 8)))  ( <  187 ( /  ( +  in7 ( +  in6 ( +  in5 ( +  in4 ( +  in3 ( +  in2 ( +  in1 in0))))))) 8)))  ( <  188 ( /  ( +  in7 ( +  in6 ( +  in5 ( +  in4 ( +  in3 ( +  in2 ( +  in1 in0))))))) 8)))  ( <  189 ( /  ( +  in7 ( +  in6 ( +  in5 ( +  in4 ( +  in3 ( +  in2 ( +  in1 in0))))))) 8)))  ( <  190 ( /  ( +  in7 ( +  in6 ( +  in5 ( +  in4 ( +  in3 ( +  in2 ( +  in1 in0))))))) 8)))  ( <  191 ( /  ( +  in7 ( +  in6 ( +  in5 ( +  in4 ( +  in3 ( +  in2 ( +  in1 in0))))))) 8)))  ( <  192 ( /  ( +  in7 ( +  in6 ( +  in5 ( +  in4 ( +  in3 ( +  in2 ( +  in1 in0))))))) 8)))  ( <  193 ( /  ( +  in7 ( +  in6 ( +  in5 ( +  in4 ( +  in3 ( +  in2 ( +  in1 in0))))))) 8)))  ( <  194 ( /  ( +  in7 ( +  in6 ( +  in5 ( +  in4 ( +  in3 ( +  in2 ( +  in1 in0))))))) 8)))  ( <  195 ( /  ( +  in7 ( +  in6 ( +  in5 ( +  in4 ( +  in3 ( +  in2 ( +  in1 in0))))))) 8)))  ( <  196 ( /  ( +  in7 ( +  in6 ( +  in5 ( +  in4 ( +  in3 ( +  in2 ( +  in1 in0))))))) 8)))  ( <  197 ( /  ( +  in7 ( +  in6 ( +  in5 ( +  in4 ( +  in3 ( +  in2 ( +  in1 in0))))))) 8)))  ( <  198 ( /  ( +  in7 ( +  in6 ( +  in5 ( +  in4 ( +  in3 ( +  in2 ( +  in1 in0))))))) 8)))  ( <  199 ( /  ( +  in7 ( +  in6 ( +  in5 ( +  in4 ( +  in3 ( +  in2 ( +  in1 in0))))))) 8))))

(check-sat)
(get-model)